5 11 32 41 
































































































15 70 73 12 68 53 
31 45 59 65 
23 48 28 37 
69 76 57 21 
26 63 2 43 
14 4 60 6 3 
42 64 16 67 56 
58 55 24 20 
74 52 51 19 
0 75 47 39 71 
17 50 18 40 36 
49 35 38 62 
33 66 61 13 44 
34 9 29 
72 10 1 25 30 
22 27 
8 46 7 54 

